WARNING: for repeatability, setting FPU to use double precision
============================[ Problem Statistics ]=============================
|                                                                             |
|  Number of variables:         33791                                         |
|  Number of clauses:          847649                                         |
|  Parse time:                   0.24 s                                       |
|  Eliminated clauses:           0.01 Mb                                      |
|  Simplification time:          0.33 s                                       |
|                                                                             |
============================[ Search Statistics ]==============================
| Conflicts |          ORIGINAL         |          LEARNT          | Progress |
|           |    Vars  Clauses Literals |    Limit  Clauses Lit/Cl |          |
===============================================================================
===============================================================================
restarts              : 1
conflicts             : 3              (5 /sec)
decisions             : 734            (0.00 % random) (1286 /sec)
propagations          : 33018          (57845 /sec)
conflict literals     : 137            (0.00 % deleted)
Memory used           : 78.00 MB
CPU time              : 0.570804 s

SATISFIABLE
